# Solution for model GasLib-40
# Objective value = 4.6720362998337635e+01
loadshed[innode_1] 0
loadshed[innode_2] 0
loadshed[innode_3] 0
loadshed[innode_4] 0
loadshed[innode_5] 0
loadshed[innode_6] 0
loadshed[innode_7] 0
loadshed[innode_8] 0
loadshed[source_1] -9.5995966590850079e-02
loadshed[source_2] 6.3608507829982730e-02
loadshed[source_3] 3.2791709951464443e-01
loadshed[sink_1] 4.5304854779628645e-03
loadshed[sink_2] 0
loadshed[sink_3] 0
loadshed[sink_4] 0
loadshed[sink_5] 0
loadshed[sink_6] 0
loadshed[sink_7] 0
loadshed[sink_8] 0
loadshed[sink_9] 0
loadshed[sink_10] 0
loadshed[sink_11] 0
loadshed[sink_12] 1
loadshed[sink_13] 0
loadshed[sink_14] 0
loadshed[sink_15] 0
loadshed[sink_16] 0
loadshed[sink_17] 0
loadshed[sink_18] 0
loadshed[sink_19] 0
loadshed[sink_20] 0
loadshed[sink_21] 1
loadshed[sink_22] 0
loadshed[sink_23] 0
loadshed[sink_24] 8.5225604180892389e-01
loadshed[sink_25] 0
loadshed[sink_26] 0
loadshed[sink_27] 0
loadshed[sink_28] 0
loadshed[sink_29] 0
flow[source_1,sink_3] 1.7326630680167153e+02
flow[innode_1,sink_16] 1.6354166666666970e+01
flow[innode_6,sink_13] 8.2293942392425734e+00
flow[sink_13,sink_14] -8.1247724274240944e+00
flow[sink_14,sink_10] -2.4478939094090762e+01
flow[sink_25,sink_26] 1.9859213700166359e+02
flow[sink_26,sink_9] 3.2708333333334551e+01
flow[sink_9,sink_18] 1.6354166666667879e+01
flow[sink_26,sink_4] 1.4952963700166237e+02
flow[sink_4,sink_20] 3.4079255746961657e+01
flow[sink_18,sink_6] 0
flow[sink_25,innode_8] -1.4055797346833515e+02
flow[sink_6,sink_7] -4.8988407685412483e+01
flow[sink_6,sink_22] 3.2634241018745819e+01
flow[sink_7,sink_24] 2.4162293162498876e+00
flow[sink_22,sink_1] 1.6280074352079151e+01
flow[sink_24,sink_21] 0
flow[sink_21,sink_12] 0
flow[sink_7,sink_5] -6.7758803668329037e+01
flow[sink_5,sink_17] -8.4112970334995708e+01
flow[sink_17,sink_4] -9.9096214588034073e+01
flow[sink_17,sink_8] -1.3709224136283140e+00
flow[sink_3,sink_23] 16.3541666666697
flow[sink_8,sink_20] -1.7725089080294993e+01
flow[sink_25,sink_20] 0
flow[sink_25,sink_15] -8.2617724439237961e+01
flow[sink_15,sink_29] -5.6042553473733669e+01
flow[sink_29,sink_28] 1.6354166666667879e+01
flow[sink_29,sink_2] 5.9283504298837634e+01
flow[sink_2,sink_15] 4.2929337632170970e+01
flow[sink_29,innode_7] -1.4803439110590585e+02
flow[innode_4,sink_19] 0
flow[sink_19,innode_3] 3.5887911859670787e+01
flow[innode_4,innode_5] 1.0624977242742445e+02
flow[sink_27,innode_5] -1.0624977242742445e+02
flow[sink_27,sink_19] 8.9895605760757775e+01
flow[sink_10,sink_11] 3.2708333333333641e+01
flow[sink_10,innode_2] -3.7653527234420281e+01
flow[sink_10,innode_3] -3.5887911859670787e+01
flow[innode_6,sink_25] -8.2293942392425734e+00
flow[sink_11,innode_1] 1.6354166666666970e+01
flow[sink_19,innode_2] 3.7653527234420281e+01
flow[source_3,innode_4] 1.0624977242742445e+02
flow[source_2,innode_7] 1.4803439110590585e+02
flow[sink_3,innode_8] 1.4055797346833515e+02
pressure[innode_1] 75.986551435353
pressure[innode_2] 78.1283971714564
pressure[innode_3] 7.8048927454508330e+01
pressure[innode_4] 81.01325
pressure[innode_5] 8.0940165803956560e+01
pressure[innode_6] 75.0112605986554
pressure[innode_7] 81.01325
pressure[innode_8] 8.0434086926490338e+01
pressure[source_1] 81.01325
pressure[source_2] 81.01325
pressure[source_3] 81.01325
pressure[sink_1] 1.0132500000000002e+00
pressure[sink_2] 7.5552191892595729e+01
pressure[sink_3] 8.0434086926490338e+01
pressure[sink_4] 4.2012947967954112e+01
pressure[sink_5] 3.1960009102121575e+01
pressure[sink_6] 3.1071584642607060e+00
pressure[sink_7] 3.7796525310908944e+00
pressure[sink_8] 3.8277545870301509e+01
pressure[sink_9] 5.9066854848437778e+01
pressure[sink_10] 7.6138252742956539e+01
pressure[sink_11] 75.986551435353
pressure[sink_12] 1.01325
pressure[sink_13] 7.4965893323473992e+01
pressure[sink_14] 7.4980433295810457e+01
pressure[sink_15] 7.5412037066700307e+01
pressure[sink_16] 7.4964901600535313e+01
pressure[sink_17] 3.8225817406066469e+01
pressure[sink_18] 5.8475112354638071e+01
pressure[sink_19] 78.1283971714564
pressure[sink_20] 39.5127353064661
pressure[sink_21] 1.01325
pressure[sink_22] 2.0721997517036463e+00
pressure[sink_23] 8.0269368914830551e+01
pressure[sink_24] 1.01325
pressure[sink_25] 75.0112605986554
pressure[sink_26] 6.1024533016322380e+01
pressure[sink_27] 8.0058489021278362e+01
pressure[sink_28] 7.6758627688360718e+01
pressure[sink_29] 7.7053909961977908e+01
interdiction[source_1,sink_3] 0
interdiction[innode_1,sink_16] 0
interdiction[innode_6,sink_13] 0
interdiction[sink_13,sink_14] 0
interdiction[sink_14,sink_10] 0
interdiction[sink_25,sink_26] 0
interdiction[sink_26,sink_9] 0
interdiction[sink_9,sink_18] 0
interdiction[sink_26,sink_4] 0
interdiction[sink_4,sink_20] 0
interdiction[sink_18,sink_6] 1
interdiction[sink_25,innode_8] 0
interdiction[sink_6,sink_7] 0
interdiction[sink_6,sink_22] 0
interdiction[sink_7,sink_24] 0
interdiction[sink_22,sink_1] 0
interdiction[sink_24,sink_21] 0
interdiction[sink_21,sink_12] 0
interdiction[sink_7,sink_5] 0
interdiction[sink_5,sink_17] 0
interdiction[sink_17,sink_4] 0
interdiction[sink_17,sink_8] 0
interdiction[sink_3,sink_23] 0
interdiction[sink_8,sink_20] 0
interdiction[sink_25,sink_20] 1
interdiction[sink_25,sink_15] 0
interdiction[sink_15,sink_29] 0
interdiction[sink_29,sink_28] 0
interdiction[sink_29,sink_2] 0
interdiction[sink_2,sink_15] 0
interdiction[sink_29,innode_7] 0
interdiction[innode_4,sink_19] 1
interdiction[sink_19,innode_3] 0
interdiction[innode_4,innode_5] 0
interdiction[sink_27,innode_5] 0
interdiction[sink_27,sink_19] 0
interdiction[sink_10,sink_11] 0
interdiction[sink_10,innode_2] 0
interdiction[sink_10,innode_3] 0
interdiction[innode_6,sink_25] 0
interdiction[sink_11,innode_1] 0
interdiction[sink_19,innode_2] 0
interdiction[source_3,innode_4] 0
interdiction[source_2,innode_7] 0
interdiction[sink_3,innode_8] 0
WCcheckFlow[source_1,sink_3] 39
WCcheckFlow[innode_1,sink_16] 1
WCcheckFlow[innode_6,sink_13] 13
WCcheckFlow[sink_13,sink_14] 12
WCcheckFlow[sink_14,sink_10] 11
WCcheckFlow[sink_25,sink_26] 15
WCcheckFlow[sink_26,sink_9] 2
WCcheckFlow[sink_9,sink_18] 1
WCcheckFlow[sink_26,sink_4] 12
WCcheckFlow[sink_4,sink_20] 1
WCcheckFlow[sink_18,sink_6] 0
WCcheckFlow[sink_25,innode_8] -36
WCcheckFlow[sink_6,sink_7] -3
WCcheckFlow[sink_6,sink_22] 2
WCcheckFlow[sink_7,sink_24] 3
WCcheckFlow[sink_22,sink_1] 1
WCcheckFlow[sink_24,sink_21] 2
WCcheckFlow[sink_21,sink_12] 1
WCcheckFlow[sink_7,sink_5] -7
WCcheckFlow[sink_5,sink_17] -8
WCcheckFlow[sink_17,sink_4] -10
WCcheckFlow[sink_17,sink_8] 1
WCcheckFlow[sink_3,sink_23] 1
WCcheckFlow[sink_8,sink_20] 0
WCcheckFlow[sink_25,sink_20] 0
WCcheckFlow[sink_25,sink_15] 6
WCcheckFlow[sink_15,sink_29] 5
WCcheckFlow[sink_29,sink_28] 1
WCcheckFlow[sink_29,sink_2] 1
WCcheckFlow[sink_2,sink_15] 0
WCcheckFlow[sink_29,innode_7] 2
WCcheckFlow[innode_4,sink_19] 0
WCcheckFlow[sink_19,innode_3] -5
WCcheckFlow[innode_4,innode_5] -2
WCcheckFlow[sink_27,innode_5] 3
WCcheckFlow[sink_27,sink_19] -4
WCcheckFlow[sink_10,sink_11] 3
WCcheckFlow[sink_10,innode_2] 1
WCcheckFlow[sink_10,innode_3] 6
WCcheckFlow[innode_6,sink_25] -14
WCcheckFlow[sink_11,innode_1] 2
WCcheckFlow[sink_19,innode_2] 0
WCcheckFlow[source_3,innode_4] -1
WCcheckFlow[source_2,innode_7] -1
WCcheckFlow[sink_3,innode_8] 37
